
Gurobi 10.0.0 (win64) logging started Fri Jun 14 00:05:53 2024

Set parameter LogFile to value "C:\Users\ealvarezq\Documents\GitHub\Comillas\Models\JointResearch\05. Models\06.Benchmarking\L.Cont_Investments_per_hour\RTS24_mod2_ByStages_nc400/openStarNet_RTS24_mod2_ByStages_nc400.log"
Set parameter Method to value 2
Set parameter MIPFocus to value 1
Set parameter Presolve to value 2
Set parameter RINS to value 100
Set parameter MIPGap to value 0.01
Set parameter Threads to value 9
Set parameter TimeLimit to value 259200
Set parameter IterationLimit to value 760000000
Gurobi Optimizer version 10.0.0 build v10.0.0rc2 (win64)

CPU model: Intel(R) Core(TM) i7-8700 CPU @ 3.20GHz, instruction set [SSE2|AVX|AVX2]
Thread count: 6 physical cores, 12 logical processors, using up to 9 threads

Optimize a model with 142003 rows, 95538 columns and 386225 nonzeros
Model fingerprint: 0x92dd1d55
Variable types: 95517 continuous, 21 integer (21 binary)
Coefficient statistics:
  Matrix range     [1e-03, 9e+02]
  Objective range  [1e+00, 1e+00]
  Bounds range     [3e-05, 3e+00]
  RHS range        [3e-05, 3e+00]
Presolve removed 84489 rows and 48249 columns
Presolve time: 0.61s
Presolved: 57514 rows, 47289 columns, 207534 nonzeros
Variable types: 47268 continuous, 21 integer (21 binary)
Root relaxation presolved: 57514 rows, 47289 columns, 207534 nonzeros

Root barrier log...

Ordering time: 0.01s

Barrier statistics:
 Dense cols : 21
 AA' NZ     : 3.854e+05
 Factor NZ  : 1.072e+06 (roughly 50 MB of memory)
 Factor Ops : 2.389e+07 (less than 1 second per iteration)
 Threads    : 8

                  Objective                Residual
Iter       Primal          Dual         Primal    Dual     Compl     Time
   0   6.65623686e+05 -6.57360981e+08  5.32e+00 4.49e+02  1.38e+04     1s
   1   1.04275764e+05 -1.70749754e+08  7.08e-01 8.22e-08  1.93e+03     1s
   2   4.17208900e+04 -9.39286750e+07  1.83e-01 3.31e-08  8.16e+02     1s
   3   2.15972262e+04 -8.75006277e+06  8.43e-03 1.24e-08  6.66e+01     1s
   4   1.62940340e+04 -5.37273669e+05  1.63e-04 1.92e-09  4.14e+00     1s
   5   7.93664038e+03 -1.42540187e+05  1.29e-05 5.14e-10  1.12e+00     1s
   6   2.85491727e+03 -3.49218259e+04  1.28e-06 1.14e-10  2.82e-01     1s
   7   9.56119132e+02 -8.32429877e+03  2.54e-07 2.51e-11  6.93e-02     1s
   8   2.66181146e+02 -1.62578076e+03  1.49e-08 4.36e-12  1.41e-02     1s
   9   1.58239357e+02 -5.08455762e+02  4.79e-09 1.52e-12  4.98e-03     1s
  10   1.09644656e+02 -1.49256501e+02  1.88e-09 2.40e-12  1.93e-03     1s
  11   8.52230930e+01 -3.29727962e+01  9.29e-10 2.50e-12  8.83e-04     1s
  12   7.34591776e+01  9.11718692e+00  5.58e-10 1.52e-12  4.80e-04     1s
  13   6.41831938e+01  2.97352993e+01  2.93e-10 2.91e-12  2.57e-04     1s
  14   5.88004468e+01  3.86154139e+01  1.48e-10 2.42e-12  1.51e-04     1s
  15   5.72924369e+01  4.24003293e+01  1.10e-10 2.05e-12  1.11e-04     1s
  16   5.57035778e+01  4.45649023e+01  6.98e-11 1.86e-12  8.32e-05     1s
  17   5.49467838e+01  4.61807284e+01  5.05e-11 1.42e-12  6.55e-05     1s
  18   5.45634294e+01  4.85497773e+01  3.96e-11 1.26e-12  4.49e-05     2s
  19   5.43626831e+01  4.93201595e+01  3.47e-11 2.03e-12  3.77e-05     2s
  20   5.40534047e+01  5.01104613e+01  2.68e-11 1.63e-12  2.94e-05     2s
  21   5.39109212e+01  5.03742079e+01  2.33e-11 1.96e-12  2.64e-05     2s
  22   5.35689042e+01  5.12927092e+01  1.47e-11 1.89e-12  1.70e-05     2s
  23   5.34709969e+01  5.15192527e+01  1.25e-11 1.23e-12  1.46e-05     2s
  24   5.33863209e+01  5.16782072e+01  9.66e-12 1.18e-12  1.28e-05     2s
  25   5.32465004e+01  5.20284160e+01  1.31e-11 1.45e-12  9.10e-06     2s
  26   5.31710834e+01  5.25225672e+01  9.50e-12 2.32e-12  4.84e-06     2s
  27   5.31066342e+01  5.27575415e+01  1.97e-11 1.33e-12  2.61e-06     2s
  28   5.30689525e+01  5.28300422e+01  1.42e-11 9.63e-13  1.78e-06     2s
  29   5.30616923e+01  5.28822556e+01  1.29e-11 8.40e-13  1.34e-06     2s
  30   5.30456838e+01  5.29183391e+01  1.04e-11 6.02e-13  9.51e-07     2s
  31   5.30350655e+01  5.29514498e+01  9.98e-12 1.42e-12  6.24e-07     2s
  32   5.30254657e+01  5.29722230e+01  5.40e-11 8.49e-13  3.98e-07     2s
  33   5.30210112e+01  5.29953578e+01  5.65e-11 7.43e-13  1.92e-07     2s
  34   5.30199515e+01  5.30084015e+01  8.26e-11 1.06e-12  8.62e-08     2s
  35   5.30189403e+01  5.30123255e+01  3.89e-11 7.42e-13  4.94e-08     2s
  36   5.30185619e+01  5.30152569e+01  9.87e-11 8.53e-13  2.47e-08     2s
  37   5.30183190e+01  5.30163286e+01  9.85e-11 1.20e-12  1.49e-08     2s
  38   5.30182682e+01  5.30170785e+01  7.61e-11 1.39e-12  8.88e-09     2s
  39   5.30181917e+01  5.30174608e+01  2.58e-10 1.32e-12  5.46e-09     2s
  40   5.30181733e+01  5.30175953e+01  2.18e-10 9.00e-13  4.32e-09     2s
  41   5.30181717e+01  5.30176433e+01  1.86e-10 1.33e-12  3.95e-09     2s
  42   5.30181699e+01  5.30176842e+01  5.74e-10 1.10e-12  3.63e-09     2s
  43   5.30181659e+01  5.30179544e+01  2.91e-10 1.51e-12  1.58e-09     2s
  44   5.30181654e+01  5.30179993e+01  2.51e-10 1.78e-12  1.24e-09     2s
  45   5.30181653e+01  5.30180128e+01  5.73e-09 1.22e-12  1.14e-09     2s
  46   5.30181652e+01  5.30180361e+01  5.38e-09 1.03e-12  9.64e-10     2s
  47   5.30181636e+01  5.30180771e+01  4.25e-09 1.83e-12  6.46e-10     2s
  48   5.30181628e+01  5.30180824e+01  1.69e-09 1.69e-12  6.00e-10     2s
  49   5.30181627e+01  5.30180979e+01  1.30e-09 1.92e-11  4.84e-10     2s
  50   5.30181625e+01  5.30181322e+01  1.13e-09 2.76e-11  2.26e-10     2s
  51   5.30181623e+01  5.30181603e+01  2.30e-09 4.64e-12  1.53e-11     2s
  52   5.30181623e+01  5.30181623e+01  4.94e-10 1.22e-12  1.81e-14     2s

Barrier solved model in 52 iterations and 2.48 seconds (2.16 work units)
Optimal objective 5.30181623e+01


Root relaxation: objective 5.301816e+01, 7042 iterations, 2.30 seconds (2.26 work units)

    Nodes    |    Current Node    |     Objective Bounds      |     Work
 Expl Unexpl |  Obj  Depth IntInf | Incumbent    BestBd   Gap | It/Node Time

     0     0   53.01816    0   18          -   53.01816      -     -    4s
H    0     0                     103.1727839   53.01816  48.6%     -    6s
H    0     0                      92.7827512   54.13943  41.6%     -   17s
     0     0   54.13943    0   10   92.78275   54.13943  41.6%     -   17s
     0     0   54.20305    0    9   92.78275   54.20305  41.6%     -   19s
     0     0   54.21404    0    9   92.78275   54.21404  41.6%     -   19s
     0     0   54.22780    0   11   92.78275   54.22780  41.6%     -   20s
H    0     0                      88.9893369   54.23382  39.1%     -   21s
     0     0   54.23382    0    9   88.98934   54.23382  39.1%     -   21s
     0     0   54.24899    0   11   88.98934   54.24899  39.0%     -   21s
     0     0   54.25102    0   11   88.98934   54.25102  39.0%     -   22s
     0     0   54.25990    0   11   88.98934   54.25990  39.0%     -   22s
     0     0   54.26429    0   11   88.98934   54.26429  39.0%     -   23s
     0     0   54.26547    0   11   88.98934   54.26547  39.0%     -   23s
     0     0   54.26758    0   11   88.98934   54.26758  39.0%     -   24s
     0     0   54.27336    0   10   88.98934   54.27336  39.0%     -   24s
     0     0   54.27569    0   10   88.98934   54.27569  39.0%     -   24s
     0     0   54.27631    0   11   88.98934   54.27631  39.0%     -   24s
     0     0   54.27715    0   11   88.98934   54.27715  39.0%     -   25s
     0     0   54.27882    0   11   88.98934   54.27882  39.0%     -   25s
     0     0   54.28008    0   10   88.98934   54.28008  39.0%     -   25s
     0     0   54.28069    0   11   88.98934   54.28069  39.0%     -   26s
     0     0   54.28072    0   11   88.98934   54.28072  39.0%     -   26s
     0     0   54.45938    0   15   88.98934   54.45938  38.8%     -   29s
     0     0   54.49322    0   18   88.98934   54.49322  38.8%     -   33s
     0     0   54.50271    0   14   88.98934   54.50271  38.8%     -   34s
     0     0   54.50446    0   15   88.98934   54.50446  38.8%     -   34s
     0     0   54.50724    0   15   88.98934   54.50724  38.7%     -   35s
     0     0   54.50809    0   15   88.98934   54.50809  38.7%     -   35s
     0     0   54.50831    0   15   88.98934   54.50831  38.7%     -   35s
     0     0   54.50857    0   15   88.98934   54.50857  38.7%     -   35s
H    0     0                      86.0464331   54.50857  36.7%     -   36s
     0     0   54.50857    0   15   86.04643   54.50857  36.7%     -   36s
     0     0   54.66401    0   13   86.04643   54.66401  36.5%     -   39s
     0     0   54.69332    0   13   86.04643   54.69332  36.4%     -   41s
     0     0   54.69567    0   11   86.04643   54.69567  36.4%     -   41s
H    0     0                      81.7436650   54.69794  33.1%     -   41s
     0     0   54.69794    0   11   81.74366   54.69794  33.1%     -   41s
     0     0   54.69903    0   11   81.74366   54.69903  33.1%     -   42s
     0     0   54.69940    0   11   81.74366   54.69940  33.1%     -   42s
     0     0   54.70012    0   11   81.74366   54.70012  33.1%     -   42s
     0     0   54.70016    0   11   81.74366   54.70016  33.1%     -   43s
     0     0   54.70869    0   11   81.74366   54.70869  33.1%     -   45s
     0     0   54.70922    0   11   81.74366   54.70922  33.1%     -   45s
     0     0   54.70930    0   11   81.74366   54.70930  33.1%     -   46s
     0     0   54.71000    0   10   81.74366   54.71000  33.1%     -   51s
H    0     0                      77.0089100   54.71000  29.0%     -   60s
H    0     0                      72.1056399   54.71000  24.1%     -  115s
     0     2   54.71000    0   10   72.10564   54.71000  24.1%     -  116s
     1     4   54.83969    1   15   72.10564   54.71173  24.1%  4623  120s
     3     8   55.86871    2   16   72.10564   54.84502  23.9%  6619  125s
     7    16   56.02412    3   17   72.10564   55.86943  22.5%  5051  134s
    15    25   56.58513    4   16   72.10564   56.02718  22.3%  4631  142s
    24    34   57.54046    5   15   72.10564   56.58875  21.5%  4215  168s
    33    43   58.15689    6   14   72.10564   56.58875  21.5%  5619  179s
    42    50   59.62053    7   13   72.10564   56.58875  21.5%  5302  190s
    51    58   61.97125    8   13   72.10564   56.58875  21.5%  5078  202s
H   56    58                      72.0316350   56.58875  21.4%  4949  202s
    61    69   66.04518    9   12   72.03163   56.58875  21.4%  4830  210s
    72    77   67.51298    9   12   72.03163   56.58875  21.4%  4588  220s
    82    79   68.73915   10   11   72.03163   56.58875  21.4%  4567  228s
    94    84     cutoff   11        72.03163   56.58875  21.4%  4271  275s
H  100    84                      71.9283409   56.58875  21.3%  4209  275s
   105    91   66.68549   10   11   71.92834   56.58875  21.3%  4277  294s
   118    98   68.77148   11   10   71.92834   56.58875  21.3%  4370  304s
   133   103   69.12284   12    9   71.92834   56.58875  21.3%  4198  312s
   150   108   71.78398   14    7   71.92834   56.58875  21.3%  3961  323s
   165   109     cutoff   15        71.92834   57.40326  20.2%  3861  338s
   188   109   63.64056    6   14   71.92834   57.40326  20.2%  3738  355s
   206   123   65.33312    7   14   71.92834   57.40326  20.2%  3698  367s
   220   126   70.57696    9   12   71.92834   57.40326  20.2%  3711  382s
   241   127     cutoff   10        71.92834   57.40326  20.2%  3628  399s
   259   135     cutoff    8        71.92834   57.40326  20.2%  3693  415s
   277   127     cutoff   10        71.92834   57.54010  20.0%  3670  428s
   304   129   58.19982    6   14   71.92834   57.54010  20.0%  3544  447s
   324   132   60.05262    7   14   71.92834   57.54010  20.0%  3555  465s
   345   141   61.69094    8   13   71.92834   57.54010  20.0%  3547  482s
   372   149   69.37814    9   11   71.92834   57.54010  20.0%  3496  498s
   400   152     cutoff   10        71.92834   57.54010  20.0%  3427  973s
   417   155   69.06430   11   10   71.92834   57.54010  20.0%  3428  997s
   469   160   69.18000   10   11   71.92834   57.54010  20.0%  3308 1017s
   494   179     cutoff   11        71.92834   59.59618  17.1%  3296 1332s
   537   187   62.48215    6   13   71.92834   59.59618  17.1%  3225 1361s
   592   189   67.20590    9   12   71.92834   59.59618  17.1%  3132 1515s
   646   186     cutoff   14        71.92834   59.59618  17.1%  3060 1548s
   695   180   70.00043   10   11   71.92834   59.59618  17.1%  3059 1878s
   754   183     cutoff   11        71.92834   62.98950  12.4%  3010 1918s
   825   182   65.15036    9   11   71.92834   62.99533  12.4%  2957 1954s
   910   189   71.33924   10   10   71.92834   62.99533  12.4%  2884 2066s
   921   188     cutoff   11        71.92834   63.92669  11.1%  2882 2108s
  1008   196   70.60718   11    9   71.92834   64.78143  9.94%  2830 2159s
  1049   197     cutoff   12        71.92834   64.90196  9.77%  2790 2203s
  1144   204   69.51198   14    7   71.92834   65.32155  9.19%  2743 2251s
  1181   225     cutoff   11        71.92834   65.44306  9.02%  2722 2295s
  1312   225   70.16050    7   10   71.92834   65.65220  8.73%  2615 2343s
  1430   252   70.83719    8    9   71.92834   66.01639  8.22%  2545 2391s
  1573   293   71.80660    9   10   71.92834   66.55939  7.46%  2461 2438s
  1766   298   69.25787    9    6   71.92834   67.03254  6.81%  2335 2488s
  1921   305   70.08530   14    7   71.92834   67.26690  6.48%  2282 2538s
  2090   290     cutoff   12        71.92834   67.52843  6.12%  2221 2908s
  2215   295     cutoff   16        71.92834   67.90932  5.59%  2191 2965s
  2455   276     cutoff   11        71.92834   68.21548  5.16%  2096 3023s
  2702   232     cutoff   15        71.92834   68.78577  4.37%  2024 3081s
  2966   129     cutoff   11        71.92834   69.10646  3.92%  1951 3139s
  3331     0   70.93482   15    5   71.92834   69.92708  2.78%  1839 3175s

Cutting planes:
  Implied bound: 399
  MIR: 1825
  Relax-and-lift: 233

Explored 3568 nodes (6385024 simplex iterations) in 3175.23 seconds (5603.72 work units)
Thread count was 9 (of 12 available processors)

Solution count 9: 71.9283 72.0316 72.1056 ... 103.173

Optimal solution found (tolerance 1.00e-02)
Best objective 7.192834089074e+01, best bound 7.192834089074e+01, gap 0.0000%

Gurobi 10.0.0 (win64) logging started Fri Jun 14 01:00:43 2024

Set parameter LogFile to value "C:\Users\ealvarezq\Documents\GitHub\Comillas\Models\JointResearch\05. Models\06.Benchmarking\L.Cont_Investments_per_hour\RTS24_mod2_ByStages_nc400/openStarNet_RTS24_mod2_ByStages_nc400.log"
Set parameter Method to value 2
Set parameter MIPFocus to value 1
Set parameter Presolve to value 2
Set parameter RINS to value 100
Set parameter MIPGap to value 0.01
Set parameter Threads to value 9
Set parameter TimeLimit to value 259200
Set parameter IterationLimit to value 760000000
Gurobi Optimizer version 10.0.0 build v10.0.0rc2 (win64)

CPU model: Intel(R) Core(TM) i7-8700 CPU @ 3.20GHz, instruction set [SSE2|AVX|AVX2]
Thread count: 6 physical cores, 12 logical processors, using up to 9 threads

Optimize a model with 142003 rows, 95517 columns and 352604 nonzeros
Model fingerprint: 0xb95499f4
Coefficient statistics:
  Matrix range     [1e-03, 9e+02]
  Objective range  [1e+00, 1e+00]
  Bounds range     [3e-05, 3e+00]
  RHS range        [3e-05, 2e+01]
Presolve removed 119606 rows and 55226 columns
Presolve time: 0.18s
Presolved: 22397 rows, 41078 columns, 101123 nonzeros

Ordering time: 0.00s

Barrier statistics:
 AA' NZ     : 5.876e+04
 Factor NZ  : 2.199e+05 (roughly 22 MB of memory)
 Factor Ops : 3.210e+06 (less than 1 second per iteration)
 Threads    : 9

                  Objective                Residual
Iter       Primal          Dual         Primal    Dual     Compl     Time
   0   6.83222581e+06 -4.78463626e+08  5.22e+01 4.82e+02  1.09e+05     0s
   1   3.83868881e+05 -3.48245682e+08  2.68e+00 1.27e-11  9.58e+03     0s
   2   5.09355377e+04 -6.49623700e+07  2.70e-01 1.91e-11  1.17e+03     0s
   3   2.82460600e+04 -9.83430022e+06  4.96e-02 1.09e-11  1.56e+02     0s
   4   2.09715267e+04 -3.42399540e+06  6.54e-03 7.28e-12  4.91e+01     0s
   5   1.71352174e+04 -1.86607640e+06  6.26e-04 5.46e-12  2.63e+01     0s
   6   1.24720248e+04 -2.13332340e+05  7.20e-12 7.28e-12  3.14e+00     0s
   7   5.61891477e+03 -4.53391733e+04  6.38e-12 3.64e-12  7.09e-01     0s
   8   2.11032807e+03 -1.00107003e+04  3.51e-12 1.62e-12  1.69e-01     0s
   9   3.89818949e+02 -1.53522708e+03  3.90e-12 1.37e-12  2.68e-02     0s
  10   1.66346573e+02 -1.91058436e+02  1.85e-12 3.88e-12  4.97e-03     0s
  11   1.17142277e+02 -4.64048858e+01  3.15e-12 1.73e-12  2.27e-03     0s
  12   9.67272499e+01  2.56479194e+01  9.79e-12 2.22e-12  9.88e-04     0s
  13   8.29916714e+01  5.34319947e+01  5.76e-12 1.75e-12  4.11e-04     0s
  14   7.69596899e+01  6.43962564e+01  1.86e-11 2.10e-12  1.75e-04     0s
  15   7.39688743e+01  6.92707810e+01  6.35e-11 1.23e-12  6.53e-05     0s
  16   7.26651209e+01  7.10565026e+01  4.81e-11 2.40e-12  2.24e-05     0s
  17   7.22164112e+01  7.16108085e+01  1.30e-10 2.44e-12  8.42e-06     0s
  18   7.19818024e+01  7.18680597e+01  5.90e-10 1.54e-12  1.58e-06     0s
  19   7.19325432e+01  7.19213422e+01  8.29e-10 3.18e-12  1.56e-07     0s
  20   7.19286857e+01  7.19277690e+01  1.62e-09 2.29e-12  1.27e-08     0s
  21   7.19283564e+01  7.19283194e+01  1.18e-09 1.69e-12  5.15e-10     0s
  22   7.19283409e+01  7.19283409e+01  8.00e-10 3.99e-12  9.47e-14     0s

Barrier solved model in 22 iterations and 0.49 seconds (0.47 work units)
Optimal objective 7.19283409e+01

Crossover log...

    4262 DPushes remaining with DInf 0.0000000e+00                 1s
       0 DPushes remaining with DInf 0.0000000e+00                 1s

    1519 PPushes remaining with PInf 0.0000000e+00                 1s
       0 PPushes remaining with PInf 0.0000000e+00                 1s

  Push phase complete: Pinf 0.0000000e+00, Dinf 2.7287131e-13      1s

Iteration    Objective       Primal Inf.    Dual Inf.      Time
    1646    7.1928341e+01   0.000000e+00   0.000000e+00      1s

Use crossover to convert LP symmetric solution to basic solution...
Crossover log...

       0 DPushes remaining with DInf 0.0000000e+00                 1s

     717 PPushes remaining with PInf 0.0000000e+00                 1s
       0 PPushes remaining with PInf 0.0000000e+00                 1s

  Push phase complete: Pinf 0.0000000e+00, Dinf 2.1422655e-13      1s

Iteration    Objective       Primal Inf.    Dual Inf.      Time
    2447    7.1928341e+01   0.000000e+00   0.000000e+00      1s

Solved in 2447 iterations and 0.77 seconds (0.63 work units)
Optimal objective  7.192834089e+01
